
Gurobi 10.0.1 (win64) logging started Fri Jun  2 12:25:27 2023

Set parameter LogFile to value "results/log/Fattahi_setup_05_modified_deadline.log"
Gurobi Optimizer version 10.0.1 build v10.0.1rc0 (win64)

CPU model: AMD Ryzen 7 3700X 8-Core Processor, instruction set [SSE2|AVX|AVX2]
Thread count: 8 physical cores, 16 logical processors, using up to 16 threads

Optimize a model with 123 rows, 73 columns and 436 nonzeros
Model fingerprint: 0x3fb978de
Model has 1 quadratic constraint
Variable types: 0 continuous, 73 integer (60 binary)
Coefficient statistics:
  Matrix range     [1e+00, 7e+04]
  QMatrix range    [1e+00, 1e+00]
  QLMatrix range   [1e+00, 4e+01]
  Objective range  [1e+00, 1e+00]
  Bounds range     [1e+00, 1e+00]
  RHS range        [1e+00, 2e+05]
Presolve removed 50 rows and 42 columns
Presolve time: 0.00s
Presolved: 83 rows, 37 columns, 357 nonzeros
Variable types: 0 continuous, 37 integer (18 binary)
Found heuristic solution: objective 365.0000000
Found heuristic solution: objective 363.0000000

Root relaxation: objective 4.000731e+01, 37 iterations, 0.00 seconds (0.00 work units)

    Nodes    |    Current Node    |     Objective Bounds      |     Work
 Expl Unexpl |  Obj  Depth IntInf | Incumbent    BestBd   Gap | It/Node Time

     0     0   40.00731    0   22  363.00000   40.00731  89.0%     -    0s
     0     0   74.00000    0   13  363.00000   74.00000  79.6%     -    0s
H    0     0                     226.0000000   74.00000  67.3%     -    0s
H    0     0                     225.0000000   74.00000  67.1%     -    0s
     0     0  141.00187    0    9  225.00000  141.00187  37.3%     -    0s
     0     0  142.00000    0    9  225.00000  142.00000  36.9%     -    0s
H    0     0                     221.0000000  142.00000  35.7%     -    0s
     0     0  147.00079    0   10  221.00000  147.00079  33.5%     -    0s
     0     0  159.00000    0    9  221.00000  159.00000  28.1%     -    0s
     0     0  165.00000    0   13  221.00000  165.00000  25.3%     -    0s
     0     0  168.00049    0   16  221.00000  168.00049  24.0%     -    0s
     0     0  207.00000    0   18  221.00000  207.00000  6.33%     -    0s
     0     0  221.00000    0   18  221.00000  221.00000  0.00%     -    0s

Cutting planes:
  Learned: 1
  Gomory: 1
  Implied bound: 1
  MIR: 4
  Flow cover: 3
  RLT: 2
  PSD: 2

Explored 1 nodes (134 simplex iterations) in 0.03 seconds (0.01 work units)
Thread count was 16 (of 16 available processors)

Solution count 5: 221 225 226 ... 365

Optimal solution found (tolerance 1.00e-04)
Best objective 2.210000000000e+02, best bound 2.210000000000e+02, gap 0.0000%
Warning: variable name "y[job:0, stage:0, machine:1]" has a space
Warning: constraint name "precedence between 1,0 to 0,0 if x_[j,l,h,z,i]=1" has a space
Warning: to let Gurobi read it back, use rlp format
Warning: variable name "y[job:0, stage:0, machine:1]" has a space
Warning: constraint name "precedence between 1,0 to 0,0 if x_[j,l,h,z,i]=1" has a space
Warning: default variable names used to write mps file
Warning: default constraint names used to write mps file
Warning: variable name "y[job:0, stage:0, machine:1]" has a space
Warning: default variable names used to write solution file
